79
28
63
18
46
20
48
8
97
37
104
99
26
102
52
93
35
91
100
77
10
81
55
19
67
95
89
92
54
15
6
36
94
27
24
96
56
43
21
9
40
45
105
60
78
0
71
109
83
23
47
82
85
30
14
76
34
49
86
39
16
62
87
75
84
57
12
53
88
90
5
17
42
44
74
29
66
32
73
11
3
98
51
101
25
108
69
31
107
1
22
65
2
33
4
68
64
41
58
59
